; PUSH 0x01 DUP1 ADD DUP1 => PUSH 0x02 PUSH 0x02
(set-option :produce-proofs true)
; 
(set-info :status unknown)
(declare-fun storage_t (Int (_ BitVec 256)) (_ BitVec 256))
(declare-fun storage_s (Int (_ BitVec 256)) (_ BitVec 256))
(declare-fun exc_halt_t (Int) Bool)
(declare-fun exc_halt_s (Int) Bool)
(declare-fun sc_t (Int) (_ BitVec 6))
(declare-fun stack_t (Int (_ BitVec 6)) (_ BitVec 256))
(declare-fun stack_s (Int (_ BitVec 6)) (_ BitVec 256))
(declare-fun sc_s (Int) (_ BitVec 6))
(declare-fun used_gas_t (Int) Int)
(declare-fun used_gas_s (Int) Int)
(assert
 (let (($x2849 (forall ((w (_ BitVec 256)) )(let ((?x3366 (storage_t 2 w)))
 (let ((?x8116 (storage_s 4 w)))
 (= ?x8116 ?x3366))))
 ))
 (let (($x903 (exc_halt_t 2)))
 (let (($x64 (exc_halt_s 4)))
 (let (($x488 (= $x64 $x903)))
 (let (($x5695 (forall ((n (_ BitVec 6)) )(let ((?x9283 (stack_t 2 n)))
 (let ((?x5534 (stack_s 4 n)))
 (let (($x1772 (= ?x5534 ?x9283)))
 (or $x1772 (bvsle (sc_t 2) n))))))
 ))
 (let ((?x4056 (sc_t 2)))
 (let ((?x4305 (sc_s 4)))
 (let (($x1495 (= ?x4305 ?x4056)))
 (let ((?x3113 (used_gas_t 0)))
 (let ((?x3887 (used_gas_s 0)))
 (let (($x7540 (= ?x3887 ?x3113)))
 (let (($x356 (forall ((w (_ BitVec 256)) )(let ((?x5937 (storage_t 0 w)))
 (let ((?x1550 (storage_s 0 w)))
 (= ?x1550 ?x5937))))
 ))
 (let (($x56 (exc_halt_t 0)))
 (let (($x57 (exc_halt_s 0)))
 (let (($x58 (= $x57 $x56)))
 (let (($x9039 (forall ((n (_ BitVec 6)) )(let ((?x63 (sc_t 0)))
 (let (($x4036 (bvsle ?x63 n)))
 (let ((?x5845 (stack_t 0 n)))
 (let ((?x9278 (stack_s 0 n)))
 (let (($x884 (= ?x9278 ?x5845)))
 (or $x884 $x4036)))))))
 ))
 (let ((?x63 (sc_t 0)))
 (let ((?x72 (sc_s 0)))
 (let (($x73 (= ?x72 ?x63)))
 (let (($x10206 (not (= ((_ extract 6 6) (bvadd (_ bv1 7) (concat (_ bv0 1) (sc_t 1)))) (_ bv0 1)))))
 (let (($x1920 (exc_halt_t 1)))
 (let (($x1070 (forall ((w (_ BitVec 256)) )(let ((?x7976 (storage_t 1 w)))
 (let ((?x3366 (storage_t 2 w)))
 (= ?x3366 ?x7976))))
 ))
 (let (($x5220 (forall ((n (_ BitVec 6)) )(or (= (stack_t 2 n) (stack_t 1 n)) (bvsle (sc_t 1) n)))
 ))
 (let (($x7668 (= ?x4056 (bvadd (_ bv1 6) (sc_t 1)))))
 (let (($x8425 (= $x1920 (or $x56 (not (= ((_ extract 6 6) (bvadd (_ bv1 7) (concat (_ bv0 1) ?x63))) (_ bv0 1)))))))
 (let (($x10635 (forall ((w (_ BitVec 256)) )(let ((?x5937 (storage_t 0 w)))
 (let ((?x7976 (storage_t 1 w)))
 (= ?x7976 ?x5937))))
 ))
 (let (($x2594 (forall ((n (_ BitVec 6)) )(let ((?x63 (sc_t 0)))
 (let (($x4036 (bvsle ?x63 n)))
 (or $x4036 (= (stack_t 1 n) (stack_t 0 n))))))
 ))
 (let ((?x4023 (sc_t 1)))
 (let (($x7805 (= ?x4023 (bvadd (_ bv1 6) ?x63))))
 (let (($x292 (exc_halt_s 3)))
 (let (($x8307 (or $x292 (not (= ((_ extract 6 6) (bvadd (_ bv1 7) (concat (_ bv0 1) (sc_s 3)))) (_ bv0 1))) (not (bvsle (_ bv0 6) (bvadd (_ bv63 6) (sc_s 3)))))))
 (let (($x2093 (forall ((w (_ BitVec 256)) )(let ((?x9515 (storage_s 3 w)))
 (let ((?x8116 (storage_s 4 w)))
 (= ?x8116 ?x9515))))
 ))
 (let (($x3319 (forall ((n (_ BitVec 6)) )(or (bvsle (bvadd (_ bv63 6) (sc_s 3)) n) (= (stack_s 4 n) (stack_s 3 n))))
 ))
 (let ((?x275 (sc_s 3)))
 (let ((?x7617 (bvadd (_ bv63 6) ?x275)))
 (let ((?x3344 (stack_s 3 ?x7617)))
 (let (($x1454 (= $x292 (or (exc_halt_s 2) (not (bvsle (_ bv0 6) (bvadd (_ bv62 6) (sc_s 2))))))))
 (let (($x1235 (forall ((w (_ BitVec 256)) )(let ((?x624 (storage_s 2 w)))
 (let ((?x9515 (storage_s 3 w)))
 (= ?x9515 ?x624))))
 ))
 (let (($x2838 (forall ((n (_ BitVec 6)) )(or (= (stack_s 3 n) (stack_s 2 n)) (bvsle (bvadd (_ bv62 6) (sc_s 2)) n)))
 ))
 (let ((?x218 (sc_s 2)))
 (let ((?x3337 (bvadd (_ bv63 6) ?x218)))
 (let ((?x7871 (stack_s 2 ?x3337)))
 (let (($x10888 (not (bvsle (_ bv0 6) (bvadd (_ bv63 6) (sc_s 1))))))
 (let (($x189 (exc_halt_s 1)))
 (let (($x1544 (or $x189 (not (= ((_ extract 6 6) (bvadd (_ bv1 7) (concat (_ bv0 1) (sc_s 1)))) (_ bv0 1))) $x10888)))
 (let (($x247 (exc_halt_s 2)))
 (let (($x8681 (forall ((w (_ BitVec 256)) )(let ((?x5494 (storage_s 1 w)))
 (let ((?x624 (storage_s 2 w)))
 (= ?x624 ?x5494))))
 ))
 (let (($x4727 (forall ((n (_ BitVec 6)) )(let ((?x154 (sc_s 1)))
 (let ((?x1693 (bvadd (_ bv63 6) ?x154)))
 (let (($x7600 (bvsle ?x1693 n)))
 (or $x7600 (= (stack_s 2 n) (stack_s 1 n)))))))
 ))
 (let ((?x154 (sc_s 1)))
 (let ((?x1693 (bvadd (_ bv63 6) ?x154)))
 (let ((?x2345 (stack_s 1 ?x1693)))
 (let (($x4103 (= $x189 (or $x57 (not (= ((_ extract 6 6) (bvadd (_ bv1 7) (concat (_ bv0 1) ?x72))) (_ bv0 1)))))))
 (let (($x8213 (forall ((w (_ BitVec 256)) )(let ((?x1550 (storage_s 0 w)))
 (let ((?x5494 (storage_s 1 w)))
 (= ?x5494 ?x1550))))
 ))
 (let (($x4069 (forall ((n (_ BitVec 6)) )(or (= (stack_s 1 n) (stack_s 0 n)) (bvsle (sc_s 0) n)))
 ))
 (let (($x6822 (= ?x154 (bvadd (_ bv1 6) ?x72))))
 (let (($x10439 (forall ((w (_ BitVec 256)) )(let ((?x1550 (storage_s 0 w)))
 (= ?x1550 (_ bv0 256))))
 ))
 (let (($x319 (= ?x3887 0)))
 (let (($x4562 (not $x57)))
 (let (($x136 (= ?x72 (_ bv0 6))))
 (and $x136 $x4562 $x319 $x10439 (= (stack_s 1 ?x72) (_ bv1 256)) (= (used_gas_s 1) (+ 3 ?x3887)) $x6822 $x4069 $x8213 $x4103 (= ?x7871 ?x2345) (= (stack_s 2 ?x1693) ?x2345) (= (used_gas_s 2) (+ 3 (used_gas_s 1))) (= ?x218 (bvadd (_ bv1 6) ?x154)) $x4727 $x8681 (= $x247 $x1544) (= ?x3344 (bvadd ?x7871 (stack_s 2 (bvadd (_ bv62 6) ?x218)))) (= (used_gas_s 3) (+ 3 (used_gas_s 2))) (= ?x275 ?x3337) $x2838 $x1235 $x1454 (= (stack_s 4 (bvadd (_ bv63 6) ?x4305)) ?x3344) (= (stack_s 4 ?x7617) ?x3344) (= (used_gas_s 4) (+ 3 (used_gas_s 3))) (= ?x4305 (bvadd (_ bv1 6) ?x275)) $x3319 $x2093 (= $x64 $x8307) (= (stack_t 1 ?x63) (_ bv2 256)) (= (used_gas_t 1) (+ 3 ?x3113)) $x7805 $x2594 $x10635 $x8425 (= (stack_t 2 ?x4023) (_ bv2 256)) (= (used_gas_t 2) (+ 3 (used_gas_t 1))) $x7668 $x5220 $x1070 (= $x903 (or $x1920 $x10206)) $x73 $x9039 $x58 $x356 $x7540 (not (and $x1495 $x5695 $x488 $x2849)))))))))))))))))))))))))))))))))))))))))))))))))))))))))))))))
(check-sat)
(get-proof)
